p cnf 30 85
22 23 24 0
25 26 27 28 0
-3 -9 0
-3 -14 0
-3 -19 0
-3 -22 0
-3 -25 0
-9 -14 0
-9 -19 0
-9 -22 0
-9 -25 0
-14 -19 0
-14 -22 0
-14 -25 0
-19 -22 0
-19 -25 0
-22 -25 0
-1 -4 0
-1 -7 0
-1 -10 0
-1 -16 0
-1 -20 0
-1 -23 0
-1 -26 0
-4 -7 0
-4 -10 0
-4 -16 0
-4 -20 0
-4 -23 0
-4 -26 0
-7 -10 0
-7 -16 0
-7 -20 0
-7 -23 0
-7 -26 0
-10 -16 0
-10 -20 0
-10 -23 0
-10 -26 0
-16 -20 0
-16 -23 0
-16 -26 0
-20 -23 0
-20 -26 0
-23 -26 0
-5 -11 0
-5 -15 0
-5 -17 0
-5 -21 0
-5 -24 0
-5 -27 0
-5 -29 0
-11 -15 0
-11 -17 0
-11 -21 0
-11 -24 0
-11 -27 0
-11 -29 0
-15 -17 0
-15 -21 0
-15 -24 0
-15 -27 0
-15 -29 0
-17 -21 0
-17 -24 0
-17 -27 0
-17 -29 0
-21 -24 0
-21 -27 0
-21 -29 0
-24 -27 0
-24 -29 0
-27 -29 0
-12 -18 0
-12 -28 0
-12 -30 0
-18 -28 0
-18 -30 0
-28 -30 0
-2 -6 0
-2 -8 0
-2 -13 0
-6 -8 0
-6 -13 0
-8 -13 0
